NAME          ClpDefau  FREE
ROWS
 N  OBJROW
 L  ZMUNI1_PCT
 L  ZMUNI2_PCT
 L  ZMUNI3_PCT
 L  ZMUNI4_PCT
 L  ZMUNI5_PCT
 L  ZMUNI6_PCT
 L  ZMUNI7_PCT
 L  ZMUNI8_PCT
 L  ZMUNI9_PCT
COLUMNS
    QMUNI1 OBJROW 1.          
    QMUNI1 ZMUNI1_PCT 27887.35628 
    QMUNI1 ZMUNI2_PCT 1778.03039  
    QMUNI1 ZMUNI3_PCT 4347.8966   
    QMUNI1 ZMUNI4_PCT 3106.45103  
    QMUNI1 ZMUNI5_PCT 468.15872   
    QMUNI1 ZMUNI6_PCT 606.48918   
    QMUNI1 ZMUNI7_PCT 1898.9563   
    QMUNI1 ZMUNI8_PCT 1518.631    
    QMUNI1 ZMUNI9_PCT 630.66483   
    QMUNI2 OBJROW 1.          
    QMUNI2 ZMUNI1_PCT 2208.82892  
    QMUNI2 ZMUNI2_PCT 32974.95842 
    QMUNI2 ZMUNI3_PCT 3031.7306   
    QMUNI2 ZMUNI4_PCT 3055.09567  
    QMUNI2 ZMUNI5_PCT 558.80547   
    QMUNI2 ZMUNI6_PCT 652.26555   
    QMUNI2 ZMUNI7_PCT 2055.3589   
    QMUNI2 ZMUNI8_PCT 2416.6108   
    QMUNI2 ZMUNI9_PCT 2448.65418  
    QMUNI3 OBJROW 1.          
    QMUNI3 ZMUNI1_PCT 4451.39408  
    QMUNI3 ZMUNI2_PCT 2751.39808  
    QMUNI3 ZMUNI3_PCT 29664.8979  
    QMUNI3 ZMUNI4_PCT 5216.88461  
    QMUNI3 ZMUNI5_PCT 748.20519   
    QMUNI3 ZMUNI6_PCT 814.9147    
    QMUNI3 ZMUNI7_PCT 1920.7001   
    QMUNI3 ZMUNI8_PCT 1802.826    
    QMUNI3 ZMUNI9_PCT 1076.4122   
    QMUNI4 OBJROW 1.          
    QMUNI4 ZMUNI1_PCT 3346.49086  
    QMUNI4 ZMUNI2_PCT 2995.58639  
    QMUNI4 ZMUNI3_PCT 5560.3027   
    QMUNI4 ZMUNI4_PCT 100230.83687
    QMUNI4 ZMUNI5_PCT 187.82616   
    QMUNI4 ZMUNI6_PCT 272.27401   
    QMUNI4 ZMUNI7_PCT 1332.4737   
    QMUNI4 ZMUNI8_PCT 1339.9125   
    QMUNI4 ZMUNI9_PCT 850.86823   
    QMUNI5 OBJROW 1.          
    QMUNI5 ZMUNI1_PCT 508.73756   
    QMUNI5 ZMUNI2_PCT 394.91653   
    QMUNI5 ZMUNI3_PCT 466.156     
    QMUNI5 ZMUNI4_PCT 385.14137   
    QMUNI5 ZMUNI5_PCT 32124.99619 
    QMUNI5 ZMUNI6_PCT 3250.09823  
    QMUNI5 ZMUNI7_PCT 995.8267    
    QMUNI5 ZMUNI8_PCT 936.8897    
    QMUNI5 ZMUNI9_PCT 1015.94925  
    QMUNI6 OBJROW 1.          
    QMUNI6 ZMUNI1_PCT 215.26813   
    QMUNI6 ZMUNI2_PCT  -0.66757   
    QMUNI6 ZMUNI3_PCT 125.5035    
    QMUNI6 ZMUNI4_PCT 80.91926    
    QMUNI6 ZMUNI5_PCT 2807.95098  
    QMUNI6 ZMUNI6_PCT 30456.90059 
    QMUNI6 ZMUNI7_PCT 337.9822    
    QMUNI6 ZMUNI8_PCT 139.4272    
    QMUNI6 ZMUNI9_PCT 65.23132    
    QMUNI7 OBJROW 1.          
    QMUNI7 ZMUNI1_PCT 1242.68532  
    QMUNI7 ZMUNI2_PCT 646.63887   
    QMUNI7 ZMUNI3_PCT 1066.0171   
    QMUNI7 ZMUNI4_PCT 769.61517   
    QMUNI7 ZMUNI5_PCT 223.01674   
    QMUNI7 ZMUNI6_PCT 366.44935   
    QMUNI7 ZMUNI7_PCT 27730.3696  
    QMUNI7 ZMUNI8_PCT 2224.5408   
    QMUNI7 ZMUNI9_PCT 660.13336   
    QMUNI8 OBJROW 1.          
    QMUNI8 ZMUNI1_PCT 979.49505   
    QMUNI8 ZMUNI2_PCT 804.90112   
    QMUNI8 ZMUNI3_PCT 1001.2626   
    QMUNI8 ZMUNI4_PCT 768.51844   
    QMUNI8 ZMUNI5_PCT 112.48589   
    QMUNI8 ZMUNI6_PCT 142.26436   
    QMUNI8 ZMUNI7_PCT 1989.3646   
    QMUNI8 ZMUNI8_PCT 25934.7916  
    QMUNI8 ZMUNI9_PCT 1033.59223  
    QMUNI9 OBJROW 1.          
    QMUNI9 ZMUNI1_PCT 313.21049   
    QMUNI9 ZMUNI2_PCT 606.53686   
    QMUNI9 ZMUNI3_PCT 402.832     
    QMUNI9 ZMUNI4_PCT 362.58697   
    QMUNI9 ZMUNI5_PCT  -7.43866   
    QMUNI9 ZMUNI6_PCT  -20.45632  
    QMUNI9 ZMUNI7_PCT 242.8055    
    QMUNI9 ZMUNI8_PCT 741.1957    
    QMUNI9 ZMUNI9_PCT 23566.43677 
RHS
    RHS ZMUNI1_PCT 0.5661772963
    RHS ZMUNI2_PCT 0.6810406265
    RHS ZMUNI3_PCT 0.2242305336
    RHS ZMUNI4_PCT  -0.27104621
    RHS ZMUNI5_PCT 0.6492296691
    RHS ZMUNI6_PCT 0.7728366482
    RHS ZMUNI7_PCT 0.349261089 
    RHS ZMUNI8_PCT 0.3860626641
    RHS ZMUNI9_PCT 1.0274609505
BOUNDS
 LO BOUND QMUNI1 -0.001346527
 UP BOUND QMUNI1      1.1e+10
 LO BOUND QMUNI2 -0.000982575
 UP BOUND QMUNI2      1.1e+10
 LO BOUND QMUNI3 -0.000875537
 UP BOUND QMUNI3      1.1e+10
 LO BOUND QMUNI4 -0.000370878
 UP BOUND QMUNI4      1.1e+10
 LO BOUND QMUNI5 -0.000821128
 UP BOUND QMUNI5      1.1e+10
 LO BOUND QMUNI6 -0.001004005
 UP BOUND QMUNI6      1.1e+10
 LO BOUND QMUNI7 -0.000453616
 UP BOUND QMUNI7      1.1e+10
 LO BOUND QMUNI8 -0.000649863
 UP BOUND QMUNI8      1.1e+10
 LO BOUND QMUNI9 -0.000962914
 UP BOUND QMUNI9      1.1e+10
ENDATA
